
Gurobi 6.5.2 (win64) logging started 07/24/16 17:38:21


Gurobi 6.5.2 (win64) logging started 07/24/16 17:38:21

Optimize a model with 3969 rows, 792 columns and 9954 nonzeros
Coefficient statistics:
  Matrix range    [6e-08, 1e+03]
  Objective range [1e+00, 1e+00]
  Bounds range    [1e+00, 1e+00]
  RHS range       [6e-06, 2e+03]
Presolve removed 3715 rows and 533 columns
Presolve time: 0.00s
Presolved: 254 rows, 259 columns, 1076 nonzeros
Variable types: 259 continuous, 0 integer (0 binary)

Root relaxation: objective 2.316571e+01, 282 iterations, 0.00 seconds

    Nodes    |    Current Node    |     Objective Bounds      |     Work
 Expl Unexpl |  Obj  Depth IntInf | Incumbent    BestBd   Gap | It/Node Time

*    0     0               0      23.1657100   23.16571  0.00%     -    0s

Explored 0 nodes (282 simplex iterations) in 0.02 seconds
Thread count was 8 (of 8 available processors)

Optimal solution found (tolerance 1.00e-04)
Best objective 2.316571003830e+01, best bound 2.316571003830e+01, gap 0.0%

Wrote requested result file 'H1\instance21\\Results21EC_Sol6.lp'

